C  H  O  Pt                             
   8.41590000000000     
     1.0000000000000000    0.0000000000000000    0.0000000000000000
     0.5000000095058164    0.8660253995413444    0.0000000000000000
     0.0000000000000000    0.0000000000000000    4.5775489799070801
   Pt     O    H 
    27     24     48
Selective dynamics
Direct
0.805555    0.0555554    0.194668     F    F    F
0.805555    0.722222    0.194668     F    F    F
0.805555    0.388889    0.194668     F    F    F
0.138889    0.0555554    0.194668     F    F    F
0.138889    0.722222    0.194668     F    F    F
0.138889    0.388889    0.194668     F    F    F
0.472222    0.0555554    0.194668     F    F    F
0.472222    0.722222    0.194668     F    F    F
0.472222    0.388889    0.194668     F    F    F
0.916666    0.833334    0.254125     F    F    F
0.916666    0.5    0.254125     F    F    F
0.916666    0.166666    0.254125     F    F    F
0.25    0.833334    0.254125     F    F    F
0.25    0.5    0.254125     F    F    F
0.25    0.166666    0.254125     F    F    F
0.583333    0.833334    0.254125     F    F    F
0.583333    0.5    0.254125     F    F    F
0.583333    0.166666    0.254125     F    F    F
0.0277775    0.944445    0.313582     F    F    F
0.0277774    0.611111    0.313582     F    F    F
0.0277775    0.277778    0.313582     F    F    F
0.361111    0.944445    0.313582     F    F    F
0.361111    0.611111    0.313582     F    F    F
0.361111    0.277778    0.313582     F    F    F
0.694444    0.944445    0.313582     F    F    F
0.694444    0.611111    0.313582     F    F    F
0.694444    0.277778    0.313582     F    F    F
0.715462    0.487479    0.596786     F    F    F
0.631986    0.953365    0.441239     F    F    F
0.318363    0.631098    0.560516     F    F    F
0.085528    0.993402    0.537364     F    F    F
0.452693    0.302289    0.536306     F    F    F
0.766955    0.156295    0.48055     F    F    F
0.181804    0.456683    0.62339     F    F    F
0.742735    0.650508    0.53876     F    F    F
0.2862    0.624438    0.706331     F    F    F
0.66372    0.49043    0.716761     F    F    F
0.774658    0.945834    0.548803     F    F    F
0.0012519    0.82464    0.459061     F    F    F
0.405496    0.853667    0.616107     F    F    F
0.902393    0.829633    0.733502     F    F    F
0.144373    0.532091    0.505004     F    F    F
0.309659    0.150725    0.579627     F    F    F
0.740386    0.66789    0.667568     F    F    F
0.498422    0.293306    0.67453     F    F    F
0.882131    0.811491    0.612445     F    F    F
0.80532    0.162832    0.627728     F    F    F
0.121206    0.95555    0.666735     F    F    F
0.0628673    0.288706    0.673876     F    F    F
0.402229    0.833362    0.485217     F    F    F
0.726081    0.178838    0.75152     F    F    F
0.363469    0.653115    0.582169     F    F    F
0.679837    0.960406    0.462576     F    F    F
0.648261    0.240887    0.490652     F    F    F
0.19955    0.75405    0.55834     F    F    F
0.736354    0.839485    0.433669     F    F    F
0.767667    0.248805    0.465815     F    F    F
0.768203    0.480366    0.575951     F    F    F
0.62849    0.618192    0.598948     F    F    F
0.120984    0.97824    0.513819     F    F    F
0.128251    0.0731354    0.546963     F    F    F
0.46548    0.404853    0.540212     F    F    F
0.346999    0.346734    0.520932     F    F    F
0.289696    0.449111    0.633168     F    F    F
0.709367    0.544051    0.701694     F    F    F
0.68978    0.0765759    0.543998     F    F    F
0.115903    0.566412    0.609846     F    F    F
0.53611    0.567631    0.714572     F    F    F
0.887618    0.950139    0.53921     F    F    F
0.740262    0.773614    0.541482     F    F    F
0.250669    0.733494    0.691431     F    F    F
0.161094    0.646378    0.709032     F    F    F
0.621874    0.688982    0.527551     F    F    F
0.0766252    0.827765    0.440343     F    F    F
0.924233    0.95168    0.468188     F    F    F
0.147132    0.581472    0.527892     F    F    F
0.839594    0.76162    0.744429     F    F    F
0.46059    0.270577    0.696127     F    F    F
0.0937519    0.645587    0.493536     F    F    F
0.807598    0.957155    0.73632     F    F    F
0.468839    0.416969    0.681465     F    F    F
0.381951    0.970387    0.603993     F    F    F
0.318293    0.901043    0.635376     F    F    F
0.380701    0.172888    0.564442     F    F    F
0.25605    0.252166    0.596666     F    F    F
0.78205    0.667876    0.642908     F    F    F
0.74849    0.767868    0.677537     F    F    F
0.809946    0.830651    0.592324     F    F    F
0.116937    0.362304    0.668762     F    F    F
0.417219    0.898194    0.466905     F    F    F
0.875296    0.926337    0.614572     F    F    F
0.935179    0.389053    0.675345     F    F    F
0.410944    0.729526    0.477292     F    F    F
0.799837    0.278474    0.62032     F    F    F
0.0248425    0.988244    0.64963     F    F    F
0.0845137    0.0769589    0.676071     F    F    F
0.685835    0.21854    0.639544     F    F    F
0.659747    0.263658    0.770273     F    F    F
0.751813    0.263678    0.737432     F    F    F
