C  H  O  Pt                             
   8.41590000000000     
     1.0000000000000000    0.0000000000000000    0.0000000000000000
     0.5000000095058164    0.8660253995413444    0.0000000000000000
     0.0000000000000000    0.0000000000000000    4.5775489799070801
   Pt   C    O    H 
    27     3     27     56
Selective dynamics
Direct
0.805555    0.0555554    0.21623     F    F    F
0.805555    0.722222    0.21623     F    F    F
0.805555    0.388889    0.21623     F    F    F
0.138889    0.0555554    0.21623     F    F    F
0.138889    0.722222    0.21623     F    F    F
0.138889    0.388889    0.21623     F    F    F
0.472222    0.0555554    0.21623     F    F    F
0.472222    0.722222    0.21623     F    F    F
0.472222    0.388889    0.21623     F    F    F
0.916666    0.833334    0.275687     F    F    F
0.916666    0.5    0.275687     F    F    F
0.916666    0.166666    0.275687     F    F    F
0.25    0.833334    0.275687     F    F    F
0.25    0.5    0.275687     F    F    F
0.25    0.166666    0.275687     F    F    F
0.583333    0.833334    0.275687     F    F    F
0.583333    0.5    0.275687     F    F    F
0.583333    0.166666    0.275687     F    F    F
0.0277775    0.944445    0.335143     F    F    F
0.0277774    0.611111    0.335143     F    F    F
0.0277775    0.277778    0.335143     F    F    F
0.361111    0.944445    0.335143     F    F    F
0.361111    0.611111    0.335143     F    F    F
0.361111    0.277778    0.335143     F    F    F
0.694444    0.944445    0.335143     F    F    F
0.694444    0.611111    0.335143     F    F    F
0.694444    0.277778    0.335143     F    F    F
0.531454    0.688603    0.414396     F    F    F
0.36843    0.657256    0.410724     F    F    F
0.39764    0.468719    0.420675     F    F    F
0.687078    0.566554    0.393387     F    F    F
0.20982    0.790936    0.42619     F    F    F
0.575302    0.324671    0.410556     F    F    F
0.325205    0.999941    0.637265     F    F    F
0.962363    0.460948    0.472411     F    F    F
0.364685    0.269614    0.51977     F    F    F
0.0311565    0.435127    0.593785     F    F    F
0.182462    0.120212    0.440795     F    F    F
0.680267    0.0588827    0.46278     F    F    F
0.0862723    0.623481    0.52326     F    F    F
0.727074    0.820813    0.560454     F    F    F
0.253252    0.365479    0.649473     F    F    F
0.904681    0.687916    0.418906     F    F    F
0.158676    0.783766    0.588148     F    F    F
0.0280497    0.421819    0.708676     F    F    F
0.71725    0.132393    0.581346     F    F    F
0.62973    0.711907    0.628023     F    F    F
0.645008    0.617912    0.514776     F    F    F
0.414445    0.969052    0.493913     F    F    F
0.620469    0.203503    0.734934     F    F    F
0.899183    0.0407132    0.514574     F    F    F
0.00190438    0.992873    0.651549     F    F    F
0.477818    0.500062    0.564257     F    F    F
0.100657    0.153698    0.547657     F    F    F
0.718874    0.960534    0.680741     F    F    F
0.73518    0.356629    0.639617     F    F    F
0.443423    0.509591    0.691159     F    F    F
0.39278    0.274791    0.543655     F    F    F
0.858772    0.463466    0.485452     F    F    F
0.631915    0.186805    0.448824     F    F    F
0.255635    0.402471    0.518864     F    F    F
0.0359829    0.462748    0.492396     F    F    F
0.668365    0.962731    0.451534     F    F    F
0.291309    0.13142    0.64478     F    F    F
0.226762    0.982099    0.64594     F    F    F
0.0243068    0.346902    0.576327     F    F    F
0.0484664    0.517667    0.57832     F    F    F
0.10526    0.250662    0.441651     F    F    F
0.254828    0.0736584    0.462803     F    F    F
0.959572    0.715998    0.531067     F    F    F
0.948526    0.606496    0.439622     F    F    F
0.108712    0.853959    0.608726     F    F    F
0.112369    0.709365    0.511753     F    F    F
0.832229    0.652763    0.404818     F    F    F
0.106593    0.874892    0.570088     F    F    F
0.732151    0.749045    0.580638     F    F    F
0.167362    0.371892    0.66698     F    F    F
0.157266    0.439374    0.631566     F    F    F
0.693618    0.940884    0.569665     F    F    F
0.990889    0.520997    0.726592     F    F    F
0.944115    0.380511    0.708211     F    F    F
0.634842    0.526899    0.530201     F    F    F
0.502756    0.811415    0.632902     F    F    F
0.852597    0.025474    0.492076     F    F    F
0.672815    0.698724    0.53058     F    F    F
0.697606    0.722566    0.647311     F    F    F
0.795625    0.0889321    0.530837     F    F    F
0.769757    0.111325    0.605099     F    F    F
0.65015    0.271542    0.577504     F    F    F
0.52075    0.851916    0.500484     F    F    F
0.425765    0.0654132    0.504676     F    F    F
0.719955    0.211712    0.744223     F    F    F
0.529492    0.321829    0.72755     F    F    F
0.910033    0.992646    0.666507     F    F    F
0.594426    0.011027    0.675566     F    F    F
0.704405    0.469964    0.628654     F    F    F
0.926377    0.114913    0.642052     F    F    F
0.704526    0.0422799    0.699004     F    F    F
0.64104    0.390213    0.658691     F    F    F
0.453012    0.547743    0.587635     F    F    F
0.172919    0.13322    0.527258     F    F    F
0.0175038    0.116918    0.540342     F    F    F
0.360212    0.555859    0.55867     F    F    F
0.359337    0.63515    0.695991     F    F    F
0.365569    0.48934    0.676878     F    F    F
0.577676    0.66718    0.44159     F    F    F
0.697513    0.443405    0.396451     F    F    F
0.213431    0.904931    0.428711     F    F    F
0.288129    0.45126    0.408774     F    F    F
0.490843    0.829638    0.406451     F    F    F
0.38776    0.464053    0.449052     F    F    F
0.562579    0.265465    0.389315     F    F    F
0.341423    0.667204    0.379955     F    F    F
