                             
   1.00000000000000000     
         8.4159                   0.0                      0.0
        4.20795              7.288379                      0.0
            0.0                   0.0                 38.52423
   Pt       O    H 
    27          2     4
Selective dynamics
Direct
1.00000000     0.00000000     0.00000000              F     F     F
1.00000000     0.66666760     0.01082400              F     F     F
1.00000000     0.33333360     0.00000000              F     F     F
0.33333400     0.00000000     0.00000000              F     F     F
0.33333300     0.66666760     0.01082400              F     F     F
0.33333400     0.33333360     0.00000000              F     F     F
0.66666700     0.00000000     0.00000000              F     F     F
0.66666700     0.66666760     0.01082400              F     F     F
0.66666700     0.33333360     0.00000000              F     F     F
1.11111100     0.77777860     0.05945600              F     F     F
1.11111100     0.44444460     0.05945600              F     F     F
1.11111100     0.11111060     0.05945600              F     F     F
0.44444500     0.77777860     0.05945600              F     F     F
0.44444500     0.44444460     0.05945600              F     F     F
0.44444500     0.11111060     0.05945600              F     F     F
0.77777800     0.77777860     0.05945600              F     F     F
0.77777800     0.44444460     0.05945600              F     F     F
0.77777800     0.11111060     0.05945600              F     F     F
0.22222250     0.88888960     0.11891300              F     F     F
0.22222240     0.55555560     0.11891300              F     F     F
0.22222250     0.22222260     0.11891300              F     F     F
0.55555600     0.88888960     0.11891300              F     F     F
0.55555600     0.55555560     0.11891300              F     F     F
0.55555600     0.22222260     0.11891300              F     F     F
0.88888900     0.88888960     0.11891300              F     F     F
0.88888900     0.55555560     0.11891300              F     F     F
0.88888900     0.22222260     0.11891300              F     F     F
0.91549200     0.17363060     0.25626300              T     T     T
0.85129300     0.88448860     0.19562400              T     T     T
0.86635500     0.18818960     0.23404800              T     T     T
1.00839400     0.20360360     0.25406100              T     T     T
0.84683400     0.79002560     0.18237300              T     T     T
0.96840700     0.81370860     0.20613300              T     T     T
