                             
   1.00000000000000000     
         8.4159                   0.0                      0.0
        4.20795              7.288379                      0.0
            0.0                   0.0                 38.52423
   Pt   C    O    H 
    27     3     5     9
Selective dynamics
Direct
1.00000000     0.00000000     0.00000000              F     F     F
1.00000000     0.66666760     0.01082400              F     F     F
1.00000000     0.33333360     0.00000000              F     F     F
0.33333400     0.00000000     0.00000000              F     F     F
0.33333300     0.66666760     0.01082400              F     F     F
0.33333400     0.33333360     0.00000000              F     F     F
0.66666700     0.00000000     0.00000000              F     F     F
0.66666700     0.66666760     0.01082400              F     F     F
0.66666700     0.33333360     0.00000000              F     F     F
1.11111100     0.77777860     0.05945600              F     F     F
1.11111100     0.44444460     0.05945600              F     F     F
1.11111100     0.11111060     0.05945600              F     F     F
0.44444500     0.77777860     0.05945600              F     F     F
0.44444500     0.44444460     0.05945600              F     F     F
0.44444500     0.11111060     0.05945600              F     F     F
0.77777800     0.77777860     0.05945600              F     F     F
0.77777800     0.44444460     0.05945600              F     F     F
0.77777800     0.11111060     0.05945600              F     F     F
0.22222250     0.88888960     0.11891300              F     F     F
0.22222240     0.55555560     0.11891300              F     F     F
0.22222250     0.22222260     0.11891300              F     F     F
0.55555600     0.88888960     0.11891300              F     F     F
0.55555600     0.55555560     0.11891300              F     F     F
0.55555600     0.22222260     0.11891300              F     F     F
0.88888900     0.88888960     0.11891300              F     F     F
0.88888900     0.55555560     0.11891300              F     F     F
0.88888900     0.22222260     0.11891300              F     F     F
0.65772600     0.62175160     0.19158300              T     T     T
0.51695100     0.57749460     0.17507100              T     T     T
0.56239200     0.38180560     0.17399200              T     T     T
0.84452600     0.52674160     0.17877100              T     T     T
0.34624300     0.70462260     0.17898000              T     T     T
0.72880800     0.26179360     0.18896600              T     T     T
0.91549200     0.17363060     0.25626300              T     T     T
0.85129300     0.88448860     0.19562400              T     T     T
0.86635500     0.18818960     0.23404800              T     T     T
1.00839400     0.20360360     0.25406100              T     T     T
0.84683400     0.79002560     0.18237300              T     T     T
0.96840700     0.81370860     0.20613300              T     T     T
0.66276800     0.59355160     0.21970600              T     T     T
0.88927200     0.39432260     0.18053200              T     T     T
0.44654800     0.36026960     0.17958100              T     T     T
0.60609500     0.76873660     0.18737000              T     T     T
0.76821600     0.13578660     0.18120400              T     T     T
