                             
   1.00000000000000000     
         8.4159                   0.0                      0.0
        4.20795              7.288379                      0.0
            0.0                   0.0                 38.52423
   Pt   C    O    H 
    27     3     39     77
Selective dynamics
Direct
1.00000000     0.00000000     0.00000000              F     F     F
1.00000000     0.66666760     0.01082400              F     F     F
1.00000000     0.33333360     0.00000000              F     F     F
0.33333400     0.00000000     0.00000000              F     F     F
0.33333300     0.66666760     0.01082400              F     F     F
0.33333400     0.33333360     0.00000000              F     F     F
0.66666700     0.00000000     0.00000000              F     F     F
0.66666700     0.66666760     0.01082400              F     F     F
0.66666700     0.33333360     0.00000000              F     F     F
1.11111100     0.77777860     0.05945600              F     F     F
1.11111100     0.44444460     0.05945600              F     F     F
1.11111100     0.11111060     0.05945600              F     F     F
0.44444500     0.77777860     0.05945600              F     F     F
0.44444500     0.44444460     0.05945600              F     F     F
0.44444500     0.11111060     0.05945600              F     F     F
0.77777800     0.77777860     0.05945600              F     F     F
0.77777800     0.44444460     0.05945600              F     F     F
0.77777800     0.11111060     0.05945600              F     F     F
0.22222250     0.88888960     0.11891300              F     F     F
0.22222240     0.55555560     0.11891300              F     F     F
0.22222250     0.22222260     0.11891300              F     F     F
0.55555600     0.88888960     0.11891300              F     F     F
0.55555600     0.55555560     0.11891300              F     F     F
0.55555600     0.22222260     0.11891300              F     F     F
0.88888900     0.88888960     0.11891300              F     F     F
0.88888900     0.55555560     0.11891300              F     F     F
0.88888900     0.22222260     0.11891300              F     F     F
0.65772600     0.62175160     0.19158300              T     T     T
0.51695100     0.57749460     0.17507100              T     T     T
0.56239200     0.38180560     0.17399200              T     T     T
0.84452600     0.52674160     0.17877100              T     T     T
0.34624300     0.70462260     0.17898000              T     T     T
0.72880800     0.26179360     0.18896600              T     T     T
0.25823520     0.23919060     0.26910700              F     F     F
0.59185200     0.21385760     0.26377800              F     F     F
0.91097700     0.13996760     0.59939100              F     F     F
0.74043300     0.56024160     0.30755800              F     F     F
1.05482100     0.09436160     0.41951900              F     F     F
0.66803000     0.29185060     0.65434800              F     F     F
0.24350470     0.92579960     0.51679700              F     F     F
0.50735700     0.34696760     0.40404200              F     F     F
0.54395100     -0.02360420     0.62396200              F     F     F
0.91549200     0.17363060     0.25626300              T     T     T
0.59834200     0.66150860     0.72416500              F     F     F
0.71015300     0.08173960     0.46501200              F     F     F
0.72188000     0.81557760     0.68393800              F     F     F
0.43572300     0.23475660     0.54577500              F     F     F
0.32700500     0.47895960     0.48468000              F     F     F
1.07348200     0.75082760     0.56677700              F     F     F
0.36266700     0.12522860     0.47026400              F     F     F
0.20296574     0.20386760     0.59515500              F     F     F
0.82707900     0.35225260     0.36613500              F     F     F
0.43020800     0.59355260     0.28039600              F     F     F
0.35137000     0.72277860     0.34570600              F     F     F
0.81754400     0.50483560     0.58766200              F     F     F
0.85129300     0.88448860     0.19562400              T     T     T
0.76379200     0.91895560     0.33555300              F     F     F
0.64718200     0.77824760     0.53697200              F     F     F
0.90158900     0.72830460     0.49186600              F     F     F
0.79821400     0.35231460     0.47847900              F     F     F
0.48032500     0.93142860     0.40741500              F     F     F
1.07759900     0.64542360     0.26379500              F     F     F
1.01907200     0.36435160     0.52691300              F     F     F
0.20686490     0.30351860     0.39057600              F     F     F
1.06429100     0.76098360     0.38711000              F     F     F
0.53079100     0.35435460     0.73250800              F     F     F
1.17171700     0.12035860     0.32540400              F     F     F
0.82220700     0.62882460     0.41606100              F     F     F
0.41815400     0.71862560     0.45559700              F     F     F
0.95438400     0.02493700     0.58472900              F     F     F
0.69453800     0.17335360     0.27896200              F     F     F
0.65843600     0.20513860     0.64248800              F     F     F
1.02367100     0.14540260     0.60285800              F     F     F
0.62992600     0.12870860     0.24516800              F     F     F
0.76164300     0.30583460     0.64133600              F     F     F
0.37803200     0.23834260     0.26627700              F     F     F
0.27579720     0.14100560     0.28535000              F     F     F
0.74153900     0.66792860     0.29866900              F     F     F
0.63657700     0.56861860     0.29491700              F     F     F
1.09411000     0.08351060     0.44207700              F     F     F
1.05823000     0.19508060     0.40843200              F     F     F
1.18960400     0.05982360     0.52208100              F     F     F
0.86635500     0.18818960     0.23404800              T     T     T
0.48858900     0.64318360     0.72774100              F     F     F
0.20803630     0.86564060     0.53366200              F     F     F
1.00839400     0.20360360     0.25406100              T     T     T
0.68829400     0.54193560     0.73322800              F     F     F
0.46270900     0.42859860     0.42337300              F     F     F
0.60067300     0.94438260     0.64804500              F     F     F
0.51010600     0.88479260     0.62585700              F     F     F
0.59792200     0.36788560     0.39176300              F     F     F
0.67882900     0.09594560     0.44178600              F     F     F
0.79810200     -0.05072304     0.47005800              F     F     F
0.21153130     0.59123960     0.48550200              F     F     F
0.53096000     0.11500260     0.54187300              F     F     F
0.24704640     0.23619160     0.57538000              F     F     F
0.40473000     0.53806860     0.48232700              F     F     F
0.46033800     0.30910360     0.53122600              F     F     F
0.30674800     0.14403660     0.61018800              F     F     F
0.83938100     0.77258860     0.69280500              F     F     F
0.67763600     0.74515260     0.69808100              F     F     F
1.10923400     0.63516860     0.57987300              F     F     F
0.95551900     0.75932460     0.55747100              F     F     F
0.30684100     0.23364260     0.48419900              F     F     F
0.47413600     0.12459360     0.46999100              F     F     F
0.79825300     0.43923660     0.38489800              F     F     F
0.79284000     0.40277860     0.59532200              F     F     F
0.84683400     0.79002560     0.18237300              T     T     T
0.78888500     0.42163360     0.34514500              F     F     F
0.94508400     0.42332260     0.57918300              F     F     F
0.96840700     0.81370860     0.20613300              T     T     T
0.41759900     0.59630660     0.30621000              F     F     F
0.44445700     0.74606360     0.35640000              F     F     F
0.29818900     0.81677060     0.32984000              F     F     F
0.49688800     0.46271860     0.27416600              F     F     F
0.84622700     0.88926860     0.35496200              F     F     F
0.82881700     0.94165860     0.31626600              F     F     F
0.77622000     0.25696760     0.46937600              F     F     F
0.90082700     0.63715460     0.47559900              F     F     F
0.99706600     0.49192360     0.52432000              F     F     F
0.72286000     0.44874160     0.46036200              F     F     F
0.79218600     0.76472360     0.50709600              F     F     F
0.94178700     0.36356960     0.50823500              F     F     F
0.52199800     0.81163060     0.53038300              F     F     F
0.68495500     0.70249060     0.55815100              F     F     F
0.42112000     0.01971070     0.42748000              F     F     F
0.40820100     0.02584020     0.39097800              F     F     F
1.11461500     0.52423660     0.26462500              F     F     F
1.19331000     0.64343460     0.26698000              F     F     F
1.08924400     0.41479460     0.39426800              F     F     F
1.04044800     0.17672460     0.33013800              F     F     F
0.70106200     0.73056460     0.41005400              F     F     F
0.30522200     0.33403360     0.39459300              F     F     F
1.17798600     0.21870460     0.33388300              F     F     F
0.89808000     0.68343760     0.41352500              F     F     F
1.05411800     0.88144460     0.39223800              F     F     F
0.42416300     0.36890660     0.72293400              F     F     F
0.61378400     0.28971560     0.71394600              F     F     F
1.16479400     0.71533160     0.37259200              F     F     F
0.44910400     0.79348860     0.43897600              F     F     F
0.35700300     0.79693860     0.47463900              F     F     F
0.66276800     0.59355160     0.21970600              T     T     T
0.88927200     0.39432260     0.18053200              T     T     T
0.44654800     0.36026960     0.17958100              T     T     T
0.60609500     0.76873660     0.18737000              T     T     T
0.76821600     0.13578660     0.18120400              T     T     T
